% File represents an instance of a Composite Structure problem to be solved by a CP framework
% Created on 2025-03-26 10:41:15.610
T = 50;
n = 9;
m = 12;
edges = [(1, 2),
(4, 5),
(7, 8),
(2, 3),
(5, 6),
(8, 9),
(1, 4),
(4, 7),
(2, 5),
(5, 8),
(3, 6),
(6, 9)];
counts = [|6, 18, 6, 20,
|4, 18, 4, 18,
|2, 16, 2, 18,
|6, 16, 6, 16,
|4, 16, 4, 14,
|2, 16, 2, 12,
|6, 14, 6, 12,
|4, 12, 4, 12,
|2, 10, 2, 12|];
